% Archivo: prueba_sencilla.dzn
% Datos de prueba para el modelo de planificación de ensayos

ACTORES = {Actor1, Actor2, Actor3};

num_escenas = 5;

participacion = array2d(ACTORES, 1..5, [
  1,1,0,1,0,  % Actor1 (aparece en escenas 1, 2, 4)
  0,1,1,0,1,  % Actor2 (aparece en escenas 2, 3, 5)
  1,0,1,1,0   % Actor3 (aparece en escenas 1, 3, 4)
]);

costo_actor = [10, 5, 8]; % Costos por unidad de tiempo para cada actor

duracion = [2, 3, 1, 2, 2]; % Duración de cada escena